maximize
OBJ:100x0 + 100x1 + 100x2 + 100x3 + 100x4 + 100x5 + 100x6 + 100x7 + 100x8 + 100x9 + 100x10 + 100x11 + 100x12 + 100x13 + 100x14 + 100x15 + 100x16 + 100x17 + 100x18 + 100x19 + 100x20 + 100x21 + 100x22 + 100x23 + 100x24 + 100x25 + 100x26 + 100x27 + 100x28 + 100x29 + 100x30 + 100x31 + 100x32 + 100x33 + 100x34 + 100x35 + 100x36 + 100x37 + 100x38 + 100x39 + 100x40 + 100x41 + 100x42 + 100x43 + 100x44 + 100x45 + 100x46 + 100x47 + 100x48 + 100x49 + 100x50 + 100x51 + 100x52 + 100x53 + 100x54 + 100x55 + 100x56 + 100x57 + 100x58 + 100x59 + 100x60 + 100x61 + 100x62 + 100x63 + 100x64 + 100x65 + 100x66 + 100x67 + 100x68 - y15_30 - y7_26 - y18_26 - y15_39 - y28_58 - y36_62 - y47_62 - y17_67 - y40_41 - y48_54 - y21_37 - y6_48 - y40_50 - y6_66 - y29_68 - y21_64 - y10_27 - y33_38 - y41_51 - y2_32 - y10_45 - y44_56 - y2_50 - y14_15 - y22_28 - y43_60 - y22_46 - y3_42 - y14_42 - y47_66 - y28_62 - y48_49 - y6_43 - y29_45 - y40_45 - y48_58 - y40_54 - y21_50 - y6_61 - y40_63 - y33_42 - y44_51 - y22_32 - y3_37 - y36_43 - y55_56 - y7_16 - y47_52 - y28_48 - y36_61 - y9_44 - y28_57 - y29_40 - y48_53 - y21_54 - y2_13 - y62_64 - y54_60 - y10_35 - y2_31 - y25_33 - y51_54 - y3_14 - y4_68 - y22_27 - y13_46 - y32_50 - y3_23 - y51_63 - y1_53 - y14_32 - y43_68 - y17_25 - y7_11 - y9_39 - y47_65 - y5_59 - y9_57 - y21_22 - y29_35 - y50_67 - y42_63 - y39_48 - y20_53 - y54_55 - y25_28 - y3_9 - y32_45 - y24_41 - y35_41 - y32_54 - y43_54 - y35_50 - y32_63 - y35_59 - y16_55 - y17_20 - y1_66 - y28_29 - y9_25 - y5_36 - y9_34 - y6_10 - y9_52 - y6_28 - y9_61 - y21_26 - y6_37 - y42_58 - y6_46 - y19_65 - y30_65 - y42_67 - y39_43 - y20_39 - y10_16 - y39_52 - y20_48 - y10_25 - y39_61 - y20_57 - y31_57 - y31_66 - y4_49 - y54_68 - y32_40 - y1_34 - y13_36 - y16_32 - y24_45 - y35_45 - y32_58 - y16_41 - y43_58 - y1_52 - y9_11 - y16_59 - y57_60 - y36_37 - y5_31 - y28_33 - y5_40 - y28_42 - y9_38 - y50_57 - y50_66 - y42_62 - y0_56 - y20_34 - y31_34 - y0_65 - y10_11 - y20_43 - y31_43 - y39_56 - y31_52 - y23_48 - y13_22 - y4_53 - y16_18 - y12_66 - y64_67 - y32_44 - y16_27 - y13_40 - y43_53 - y5_8 - y16_54 - y17_19 - y9_15 - y49_60 - y15_67 - y50_52 - y19_46 - y27_59 - y11_51 - y8_64 - y19_64 - y30_64 - y12_25 - y20_38 - y31_38 - y2_11 - y20_47 - y23_43 - y20_56 - y4_39 - y31_56 - y12_52 - y31_65 - y32_39 - y34_58 - y4_66 - y56_67 - y24_44 - y5_12 - y9_19 - y15_53 - y5_30 - y26_62 - y6_13 - y8_41 - y0_37 - y30_50 - y19_68 - y31_33 - y11_64 - y39_46 - y31_42 - y12_56 - y23_56 - y45_53 - y24_30 - y1_37 - y14_65 - y9_14 - y15_48 - y26_48 - y38_50 - y49_59 - y18_53 - y38_68 - y27_31 - y49_68 - y7_62 - y19_27 - y27_49 - y0_32 - y8_45 - y19_54 - y12_15 - y8_63 - y30_63 - y4_11 - y23_24 - y31_37 - y0_68 - y12_33 - y33_65 - y1_5 - y24_25 - y45_57 - y56_57 - y1_32 - y37_53 - y56_66 - y14_60 - y15_34 - y15_43 - y26_43 - y15_61 - y26_61 - y49_63 - y0_18 - y11_18 - y8_31 - y27_44 - y11_27 - y63_65 - y30_40 - y8_49 - y41_55 - y31_32 - y33_51 - y23_28 - y41_64 - y52_64 - y4_24 - y25_56 - y34_52 - y14_46 - y22_59 - y34_61 - y45_61 - y56_61 - y14_64 - y15_29 - y7_25 - y18_25 - y18_34 - y15_47 - y7_43 - y15_56 - y7_52 - y8_17 - y18_52 - y26_65 - y0_13 - y7_61 - y0_22 - y29_58 - y8_35 - y30_35 - y0_31 - y11_31 - y8_44 - y30_44 - y12_14 - y4_10 - y44_46 - y12_23 - y41_59 - y52_59 - y4_19 - y10_53 - y41_68 - y25_51 - y44_55 - y4_28 - y1_13 - y45_47 - y14_50 - y3_59 - y7_20 - y15_33 - y7_29 - y18_29 - y7_38 - y15_51 - y7_47 - y8_12 - y18_47 - y8_21 - y19_21 - y11_17 - y0_26 - y29_62 - y21_67 - y41_45 - y33_41 - y25_37 - y33_50 - y52_63 - y2_44 - y10_57 - y10_66 - y22_31 - y44_68 - y22_40 - y3_36 - y34_51 - y45_51 - y14_45 - y37_56 - y26_28 - y55_64 - y47_60 - y59_62 - y15_37 - y26_46 - y17_65 - y29_39 - y8_16 - y0_12 - y11_12 - y48_61 - y6_55 - y11_21 - y11_30 - y29_66 - y40_66 - y63_68 - y25_32 - y4_9 - y33_45 - y41_58 - y10_52 - y44_54 - y2_48 - y3_22 - y34_37 - y3_31 - y32_67 - y22_44 - y14_49 - y36_55 - y47_55 - y7_28 - y36_64 - y47_64 - y17_60 - y59_66 - y29_34 - y0_7 - y40_43 - y21_39 - y21_48 - y29_61 - y21_57 - y62_67 - y25_27 - y33_40 - y10_47 - y33_49 - y25_45 - y22_30 - y51_66 - y13_58 - y35_67 - y16_63 - y15_18 - y7_14 - y47_50 - y17_46 - y59_61 - y5_53 - y47_68 - y9_51 - y0_2 - y29_38 - y29_56 - y6_63 - y2_20 - y20_65 - y2_38 - y25_40 - y2_56 - y43_57 - y24_53 - y35_53 - y1_60 - y24_62 - y35_62 - y17_32 - y7_9 - y55_58 - y17_41 - y28_41 - y9_37 - y9_46 - y17_59 - y5_66 - y17_68 - y28_68 - y9_64 - y50_65 - y61_65 - y6_40 - y29_42 - y21_47 - y6_58 - y39_55 - y10_28 - y20_60 - y25_26 - y10_37 - y32_34 - y23_65 - y2_42 - y13_39 - y24_39 - y24_48 - y16_44 - y35_57 - y13_66 - y24_66 - y35_66 - y36_40 - y28_45 - y5_52 - y9_59 - y50_60 - y27_67 - y6_44 - y39_50 - y20_46 - y31_46 - y39_59 - y12_51 - y2_28 - y12_60 - y3_11 - y4_65 - y32_47 - y51_60 - y43_56 - y13_61 - y16_66 - y28_31 - y46_67 - y36_44 - y28_40 - y17_49 - y5_56 - y6_30 - y58_68 - y27_62 - y61_64 - y19_67 - y20_41 - y39_54 - y12_46 - y4_42 - y23_55 - y32_33 - y12_64 - y23_64 - y4_60 - y16_25 - y13_38 - y24_56 - y17_26 - y57_62 - y9_22 - y38_58 - y49_67 - y28_44 - y5_51 - y27_66 - y30_62 - y11_58 - y39_40 - y10_13 - y12_32 - y23_32 - y31_45 - y12_41 - y12_50 - y20_63 - y12_59 - y1_22 - y23_68 - y1_31 - y24_33 - y16_38 - y16_47 - y1_58 - y38_53 - y5_28 - y15_60 - y38_62 - y5_37 - y6_11 - y27_43 - y6_20 - y30_39 - y8_48 - y50_63 - y19_57 - y30_57 - y42_59 - y11_53 - y12_18 - y19_66 - y42_68 - y4_23 - y12_36 - y20_49 - y4_32 - y12_45 - y12_54 - y23_63 - y13_28 - y53_64 - y34_60 - y13_37 - y35_37 - y37_65 - y38_48 - y5_32 - y18_51 - y15_64 - y49_66 - y27_38 - y0_30 - y30_43 - y42_45 - y27_56 - y11_39 - y12_13 - y8_61 - y19_61 - y30_61 - y0_57 - y20_35 - y4_18 - y0_66 - y31_44 - y23_40 - y1_12 - y13_14 - y4_45 - y53_59 - y34_55 - y45_55 - y1_30 - y16_28 - y22_62 - y1_39 - y5_9 - y46_47 - y15_41 - y5_18 - y49_52 - y18_46 - y15_59 - y26_59 - y49_61 - y8_20 - y15_68 - y27_33 - y18_64 - y8_29 - y19_29 - y27_42 - y0_25 - y11_25 - y8_38 - y19_38 - y27_51 - y0_34 - y8_47 - y42_49 - y19_56 - y20_21 - y4_13 - y0_61 - y31_39 - y12_35 - y4_31 - y10_65 - y23_44 - y25_63 - y22_48 - y45_59 - y3_53 - y14_53 - y34_68 - y3_62 - y26_27 - y15_36 - y46_51 - y18_32 - y38_47 - y7_41 - y26_54 - y15_63 - y0_11 - y7_59 - y48_60 - y7_68 - y30_33 - y27_46 - y0_29 - y40_65 - y8_42 - y63_67 - y30_51 - y12_30 - y23_30 - y10_60 - y33_62 - y44_62 - y25_58 - y22_34 - y34_36 - y1_11 - y25_67 - y34_45 - y14_39 - y3_39 - y22_52 - y34_54 - y56_63 - y37_59 - y7_18 - y14_66 - y7_27 - y18_27 - y7_36 - y18_45 - y18_54 - y11_15 - y8_28 - y0_33 - y0_42 - y41_43 - y33_39 - y41_52 - y4_12 - y10_46 - y44_57 - y25_53 - y44_66 - y34_40 - y3_34 - y14_43 - y56_58 - y7_13 - y14_61 - y15_26 - y26_35 - y7_31 - y15_44 - y26_44 - y18_49 - y9_68 - y48_50 - y29_46 - y0_19 - y29_55 - y40_55 - y0_28 - y40_64 - y63_66 - y33_34 - y41_47 - y25_30 - y4_7 - y52_56 - y10_50 - y41_65 - y2_46 - y25_48 - y25_57 - y14_20 - y22_33 - y2_64 - y66_67
 Subject to
C1: x0+x1 <=1 
C2: x0+x2-y0_2 <=1 
C3: x0+x4 <=1 
C4: x0+x6 <=1 
C5: x0+x7-y0_7 <=1 
C6: x0+x9 <=1 
C7: x0+x11-y0_11 <=1 
C8: x0+x12-y0_12 <=1 
C9: x0+x13-y0_13 <=1 
C10: x0+x14 <=1 
C11: x0+x17 <=1 
C12: x0+x18-y0_18 <=1 
C13: x0+x19-y0_19 <=1 
C14: x0+x22-y0_22 <=1 
C15: x0+x23 <=1 
C16: x0+x24 <=1 
C17: x0+x25-y0_25 <=1 
C18: x0+x26-y0_26 <=1 
C19: x0+x28-y0_28 <=1 
C20: x0+x29-y0_29 <=1 
C21: x0+x30-y0_30 <=1 
C22: x0+x31-y0_31 <=1 
C23: x0+x32-y0_32 <=1 
C24: x0+x33-y0_33 <=1 
C25: x0+x34-y0_34 <=1 
C26: x0+x36 <=1 
C27: x0+x37-y0_37 <=1 
C28: x0+x40 <=1 
C29: x0+x41 <=1 
C30: x0+x42-y0_42 <=1 
C31: x0+x44 <=1 
C32: x0+x46 <=1 
C33: x0+x47 <=1 
C34: x0+x48 <=1 
C35: x0+x52 <=1 
C36: x0+x53 <=1 
C37: x0+x54 <=1 
C38: x0+x56-y0_56 <=1 
C39: x0+x57-y0_57 <=1 
C40: x0+x59 <=1 
C41: x0+x60 <=1 
C42: x0+x61-y0_61 <=1 
C43: x0+x62 <=1 
C44: x0+x64 <=1 
C45: x0+x65-y0_65 <=1 
C46: x0+x66-y0_66 <=1 
C47: x0+x68-y0_68 <=1 
C48: x1+x3 <=1 
C49: x1+x5-y1_5 <=1 
C50: x1+x8 <=1 
C51: x1+x9 <=1 
C52: x1+x10 <=1 
C53: x1+x11-y1_11 <=1 
C54: x1+x12-y1_12 <=1 
C55: x1+x13-y1_13 <=1 
C56: x1+x14 <=1 
C57: x1+x15 <=1 
C58: x1+x17 <=1 
C59: x1+x22-y1_22 <=1 
C60: x1+x25 <=1 
C61: x1+x26 <=1 
C62: x1+x28 <=1 
C63: x1+x30-y1_30 <=1 
C64: x1+x31-y1_31 <=1 
C65: x1+x32-y1_32 <=1 
C66: x1+x34-y1_34 <=1 
C67: x1+x35 <=1 
C68: x1+x37-y1_37 <=1 
C69: x1+x39-y1_39 <=1 
C70: x1+x41 <=1 
C71: x1+x42 <=1 
C72: x1+x44 <=1 
C73: x1+x45 <=1 
C74: x1+x47 <=1 
C75: x1+x48 <=1 
C76: x1+x51 <=1 
C77: x1+x52-y1_52 <=1 
C78: x1+x53-y1_53 <=1 
C79: x1+x54 <=1 
C80: x1+x58-y1_58 <=1 
C81: x1+x60-y1_60 <=1 
C82: x1+x61 <=1 
C83: x1+x66-y1_66 <=1 
C84: x1+x68 <=1 
C85: x2+x6 <=1 
C86: x2+x9 <=1 
C87: x2+x10 <=1 
C88: x2+x11-y2_11 <=1 
C89: x2+x12 <=1 
C90: x2+x13-y2_13 <=1 
C91: x2+x14 <=1 
C92: x2+x15 <=1 
C93: x2+x18 <=1 
C94: x2+x19 <=1 
C95: x2+x20-y2_20 <=1 
C96: x2+x23 <=1 
C97: x2+x24 <=1 
C98: x2+x25 <=1 
C99: x2+x26 <=1 
C100: x2+x27 <=1 
C101: x2+x28-y2_28 <=1 
C102: x2+x31-y2_31 <=1 
C103: x2+x32-y2_32 <=1 
C104: x2+x33 <=1 
C105: x2+x34 <=1 
C106: x2+x36 <=1 
C107: x2+x37 <=1 
C108: x2+x38-y2_38 <=1 
C109: x2+x39 <=1 
C110: x2+x41 <=1 
C111: x2+x42-y2_42 <=1 
C112: x2+x44-y2_44 <=1 
C113: x2+x46-y2_46 <=1 
C114: x2+x48-y2_48 <=1 
C115: x2+x49 <=1 
C116: x2+x50-y2_50 <=1 
C117: x2+x52 <=1 
C118: x2+x53 <=1 
C119: x2+x56-y2_56 <=1 
C120: x2+x57 <=1 
C121: x2+x64-y2_64 <=1 
C122: x2+x65 <=1 
C123: x3+x4 <=1 
C124: x3+x8 <=1 
C125: x3+x9-y3_9 <=1 
C126: x3+x10 <=1 
C127: x3+x11-y3_11 <=1 
C128: x3+x13 <=1 
C129: x3+x14-y3_14 <=1 
C130: x3+x15 <=1 
C131: x3+x22-y3_22 <=1 
C132: x3+x23-y3_23 <=1 
C133: x3+x25 <=1 
C134: x3+x26 <=1 
C135: x3+x27 <=1 
C136: x3+x31-y3_31 <=1 
C137: x3+x32 <=1 
C138: x3+x34-y3_34 <=1 
C139: x3+x36-y3_36 <=1 
C140: x3+x37-y3_37 <=1 
C141: x3+x39-y3_39 <=1 
C142: x3+x41 <=1 
C143: x3+x42-y3_42 <=1 
C144: x3+x43 <=1 
C145: x3+x45 <=1 
C146: x3+x46 <=1 
C147: x3+x48 <=1 
C148: x3+x52 <=1 
C149: x3+x53-y3_53 <=1 
C150: x3+x54 <=1 
C151: x3+x58 <=1 
C152: x3+x59-y3_59 <=1 
C153: x3+x60 <=1 
C154: x3+x61 <=1 
C155: x3+x62-y3_62 <=1 
C156: x3+x63 <=1 
C157: x3+x64 <=1 
C158: x3+x65 <=1 
C159: x3+x67 <=1 
C160: x4+x7-y4_7 <=1 
C161: x4+x8 <=1 
C162: x4+x9-y4_9 <=1 
C163: x4+x10-y4_10 <=1 
C164: x4+x11-y4_11 <=1 
C165: x4+x12-y4_12 <=1 
C166: x4+x13-y4_13 <=1 
C167: x4+x14 <=1 
C168: x4+x18-y4_18 <=1 
C169: x4+x19-y4_19 <=1 
C170: x4+x23-y4_23 <=1 
C171: x4+x24-y4_24 <=1 
C172: x4+x25 <=1 
C173: x4+x27 <=1 
C174: x4+x28-y4_28 <=1 
C175: x4+x30 <=1 
C176: x4+x31-y4_31 <=1 
C177: x4+x32-y4_32 <=1 
C178: x4+x35 <=1 
C179: x4+x39-y4_39 <=1 
C180: x4+x40 <=1 
C181: x4+x41 <=1 
C182: x4+x42-y4_42 <=1 
C183: x4+x44 <=1 
C184: x4+x45-y4_45 <=1 
C185: x4+x46 <=1 
C186: x4+x47 <=1 
C187: x4+x48 <=1 
C188: x4+x49-y4_49 <=1 
C189: x4+x51 <=1 
C190: x4+x52 <=1 
C191: x4+x53-y4_53 <=1 
C192: x4+x55 <=1 
C193: x4+x56 <=1 
C194: x4+x57 <=1 
C195: x4+x58 <=1 
C196: x4+x60-y4_60 <=1 
C197: x4+x61 <=1 
C198: x4+x64 <=1 
C199: x4+x65-y4_65 <=1 
C200: x4+x66-y4_66 <=1 
C201: x4+x67 <=1 
C202: x4+x68-y4_68 <=1 
C203: x5+x7 <=1 
C204: x5+x8-y5_8 <=1 
C205: x5+x9-y5_9 <=1 
C206: x5+x12-y5_12 <=1 
C207: x5+x13 <=1 
C208: x5+x15 <=1 
C209: x5+x16 <=1 
C210: x5+x17 <=1 
C211: x5+x18-y5_18 <=1 
C212: x5+x19 <=1 
C213: x5+x21 <=1 
C214: x5+x22 <=1 
C215: x5+x28-y5_28 <=1 
C216: x5+x30-y5_30 <=1 
C217: x5+x31-y5_31 <=1 
C218: x5+x32-y5_32 <=1 
C219: x5+x36-y5_36 <=1 
C220: x5+x37-y5_37 <=1 
C221: x5+x40-y5_40 <=1 
C222: x5+x41 <=1 
C223: x5+x47 <=1 
C224: x5+x49 <=1 
C225: x5+x50 <=1 
C226: x5+x51-y5_51 <=1 
C227: x5+x52-y5_52 <=1 
C228: x5+x53-y5_53 <=1 
C229: x5+x54 <=1 
C230: x5+x55 <=1 
C231: x5+x56-y5_56 <=1 
C232: x5+x57 <=1 
C233: x5+x59-y5_59 <=1 
C234: x5+x63 <=1 
C235: x5+x64 <=1 
C236: x5+x66-y5_66 <=1 
C237: x5+x67 <=1 
C238: x6+x7 <=1 
C239: x6+x10-y6_10 <=1 
C240: x6+x11-y6_11 <=1 
C241: x6+x13-y6_13 <=1 
C242: x6+x18 <=1 
C243: x6+x19 <=1 
C244: x6+x20-y6_20 <=1 
C245: x6+x22 <=1 
C246: x6+x23 <=1 
C247: x6+x27 <=1 
C248: x6+x28-y6_28 <=1 
C249: x6+x30-y6_30 <=1 
C250: x6+x33 <=1 
C251: x6+x35 <=1 
C252: x6+x37-y6_37 <=1 
C253: x6+x40-y6_40 <=1 
C254: x6+x42 <=1 
C255: x6+x43-y6_43 <=1 
C256: x6+x44-y6_44 <=1 
C257: x6+x46-y6_46 <=1 
C258: x6+x48-y6_48 <=1 
C259: x6+x50 <=1 
C260: x6+x51 <=1 
C261: x6+x55-y6_55 <=1 
C262: x6+x56 <=1 
C263: x6+x58-y6_58 <=1 
C264: x6+x59 <=1 
C265: x6+x61-y6_61 <=1 
C266: x6+x62 <=1 
C267: x6+x63-y6_63 <=1 
C268: x6+x64 <=1 
C269: x6+x66-y6_66 <=1 
C270: x6+x67 <=1 
C271: x7+x9-y7_9 <=1 
C272: x7+x10 <=1 
C273: x7+x11-y7_11 <=1 
C274: x7+x13-y7_13 <=1 
C275: x7+x14-y7_14 <=1 
C276: x7+x15 <=1 
C277: x7+x16-y7_16 <=1 
C278: x7+x18-y7_18 <=1 
C279: x7+x20-y7_20 <=1 
C280: x7+x21 <=1 
C281: x7+x24 <=1 
C282: x7+x25-y7_25 <=1 
C283: x7+x26-y7_26 <=1 
C284: x7+x27-y7_27 <=1 
C285: x7+x28-y7_28 <=1 
C286: x7+x29-y7_29 <=1 
C287: x7+x30 <=1 
C288: x7+x31-y7_31 <=1 
C289: x7+x32 <=1 
C290: x7+x33 <=1 
C291: x7+x34 <=1 
C292: x7+x35 <=1 
C293: x7+x36-y7_36 <=1 
C294: x7+x38-y7_38 <=1 
C295: x7+x40 <=1 
C296: x7+x41-y7_41 <=1 
C297: x7+x43-y7_43 <=1 
C298: x7+x45 <=1 
C299: x7+x47-y7_47 <=1 
C300: x7+x50 <=1 
C301: x7+x52-y7_52 <=1 
C302: x7+x57 <=1 
C303: x7+x58 <=1 
C304: x7+x59-y7_59 <=1 
C305: x7+x61-y7_61 <=1 
C306: x7+x62-y7_62 <=1 
C307: x7+x66 <=1 
C308: x7+x68-y7_68 <=1 
C309: x8+x12-y8_12 <=1 
C310: x8+x13 <=1 
C311: x8+x15 <=1 
C312: x8+x16-y8_16 <=1 
C313: x8+x17-y8_17 <=1 
C314: x8+x18 <=1 
C315: x8+x19 <=1 
C316: x8+x20-y8_20 <=1 
C317: x8+x21-y8_21 <=1 
C318: x8+x27 <=1 
C319: x8+x28-y8_28 <=1 
C320: x8+x29-y8_29 <=1 
C321: x8+x31-y8_31 <=1 
C322: x8+x35-y8_35 <=1 
C323: x8+x38-y8_38 <=1 
C324: x8+x41-y8_41 <=1 
C325: x8+x42-y8_42 <=1 
C326: x8+x43 <=1 
C327: x8+x44-y8_44 <=1 
C328: x8+x45-y8_45 <=1 
C329: x8+x47-y8_47 <=1 
C330: x8+x48-y8_48 <=1 
C331: x8+x49-y8_49 <=1 
C332: x8+x51 <=1 
C333: x8+x52 <=1 
C334: x8+x54 <=1 
C335: x8+x56 <=1 
C336: x8+x57 <=1 
C337: x8+x58 <=1 
C338: x8+x60 <=1 
C339: x8+x61-y8_61 <=1 
C340: x8+x62 <=1 
C341: x8+x63-y8_63 <=1 
C342: x8+x64-y8_64 <=1 
C343: x8+x68 <=1 
C344: x9+x11-y9_11 <=1 
C345: x9+x12 <=1 
C346: x9+x13 <=1 
C347: x9+x14-y9_14 <=1 
C348: x9+x15-y9_15 <=1 
C349: x9+x19-y9_19 <=1 
C350: x9+x20 <=1 
C351: x9+x21 <=1 
C352: x9+x22-y9_22 <=1 
C353: x9+x25-y9_25 <=1 
C354: x9+x27 <=1 
C355: x9+x28 <=1 
C356: x9+x31 <=1 
C357: x9+x32 <=1 
C358: x9+x33 <=1 
C359: x9+x34-y9_34 <=1 
C360: x9+x35 <=1 
C361: x9+x37-y9_37 <=1 
C362: x9+x38-y9_38 <=1 
C363: x9+x39-y9_39 <=1 
C364: x9+x40 <=1 
C365: x9+x41 <=1 
C366: x9+x44-y9_44 <=1 
C367: x9+x45 <=1 
C368: x9+x46-y9_46 <=1 
C369: x9+x47 <=1 
C370: x9+x50 <=1 
C371: x9+x51-y9_51 <=1 
C372: x9+x52-y9_52 <=1 
C373: x9+x54 <=1 
C374: x9+x57-y9_57 <=1 
C375: x9+x58 <=1 
C376: x9+x59-y9_59 <=1 
C377: x9+x61-y9_61 <=1 
C378: x9+x62 <=1 
C379: x9+x64-y9_64 <=1 
C380: x9+x68-y9_68 <=1 
C381: x10+x11-y10_11 <=1 
C382: x10+x13-y10_13 <=1 
C383: x10+x16-y10_16 <=1 
C384: x10+x20 <=1 
C385: x10+x21 <=1 
C386: x10+x24 <=1 
C387: x10+x25-y10_25 <=1 
C388: x10+x27-y10_27 <=1 
C389: x10+x28-y10_28 <=1 
C390: x10+x30 <=1 
C391: x10+x31 <=1 
C392: x10+x33 <=1 
C393: x10+x34 <=1 
C394: x10+x35-y10_35 <=1 
C395: x10+x36 <=1 
C396: x10+x37-y10_37 <=1 
C397: x10+x40 <=1 
C398: x10+x41 <=1 
C399: x10+x43 <=1 
C400: x10+x44 <=1 
C401: x10+x45-y10_45 <=1 
C402: x10+x46-y10_46 <=1 
C403: x10+x47-y10_47 <=1 
C404: x10+x49 <=1 
C405: x10+x50-y10_50 <=1 
C406: x10+x52-y10_52 <=1 
C407: x10+x53-y10_53 <=1 
C408: x10+x56 <=1 
C409: x10+x57-y10_57 <=1 
C410: x10+x60-y10_60 <=1 
C411: x10+x61 <=1 
C412: x10+x63 <=1 
C413: x10+x65-y10_65 <=1 
C414: x10+x66-y10_66 <=1 
C415: x10+x67 <=1 
C416: x10+x68 <=1 
C417: x11+x12-y11_12 <=1 
C418: x11+x14 <=1 
C419: x11+x15-y11_15 <=1 
C420: x11+x16 <=1 
C421: x11+x17-y11_17 <=1 
C422: x11+x18-y11_18 <=1 
C423: x11+x19 <=1 
C424: x11+x21-y11_21 <=1 
C425: x11+x25-y11_25 <=1 
C426: x11+x27-y11_27 <=1 
C427: x11+x30-y11_30 <=1 
C428: x11+x31-y11_31 <=1 
C429: x11+x39-y11_39 <=1 
C430: x11+x43 <=1 
C431: x11+x44 <=1 
C432: x11+x45 <=1 
C433: x11+x47 <=1 
C434: x11+x49 <=1 
C435: x11+x51-y11_51 <=1 
C436: x11+x52 <=1 
C437: x11+x53-y11_53 <=1 
C438: x11+x57 <=1 
C439: x11+x58-y11_58 <=1 
C440: x11+x59 <=1 
C441: x11+x61 <=1 
C442: x11+x63 <=1 
C443: x11+x64-y11_64 <=1 
C444: x11+x65 <=1 
C445: x11+x68 <=1 
C446: x12+x13-y12_13 <=1 
C447: x12+x14-y12_14 <=1 
C448: x12+x15-y12_15 <=1 
C449: x12+x16 <=1 
C450: x12+x18-y12_18 <=1 
C451: x12+x23-y12_23 <=1 
C452: x12+x24 <=1 
C453: x12+x25-y12_25 <=1 
C454: x12+x27 <=1 
C455: x12+x30-y12_30 <=1 
C456: x12+x32-y12_32 <=1 
C457: x12+x33-y12_33 <=1 
C458: x12+x35-y12_35 <=1 
C459: x12+x36-y12_36 <=1 
C460: x12+x37 <=1 
C461: x12+x40 <=1 
C462: x12+x41-y12_41 <=1 
C463: x12+x42 <=1 
C464: x12+x45-y12_45 <=1 
C465: x12+x46-y12_46 <=1 
C466: x12+x47 <=1 
C467: x12+x49 <=1 
C468: x12+x50-y12_50 <=1 
C469: x12+x51-y12_51 <=1 
C470: x12+x52-y12_52 <=1 
C471: x12+x54-y12_54 <=1 
C472: x12+x55 <=1 
C473: x12+x56-y12_56 <=1 
C474: x12+x58 <=1 
C475: x12+x59-y12_59 <=1 
C476: x12+x60-y12_60 <=1 
C477: x12+x61 <=1 
C478: x12+x63 <=1 
C479: x12+x64-y12_64 <=1 
C480: x12+x66-y12_66 <=1 
C481: x12+x68 <=1 
C482: x13+x14-y13_14 <=1 
C483: x13+x17 <=1 
C484: x13+x18 <=1 
C485: x13+x19 <=1 
C486: x13+x20 <=1 
C487: x13+x21 <=1 
C488: x13+x22-y13_22 <=1 
C489: x13+x28-y13_28 <=1 
C490: x13+x30 <=1 
C491: x13+x31 <=1 
C492: x13+x32 <=1 
C493: x13+x33 <=1 
C494: x13+x35 <=1 
C495: x13+x36-y13_36 <=1 
C496: x13+x37-y13_37 <=1 
C497: x13+x38-y13_38 <=1 
C498: x13+x39-y13_39 <=1 
C499: x13+x40-y13_40 <=1 
C500: x13+x46-y13_46 <=1 
C501: x13+x47 <=1 
C502: x13+x48 <=1 
C503: x13+x51 <=1 
C504: x13+x53 <=1 
C505: x13+x55 <=1 
C506: x13+x56 <=1 
C507: x13+x58-y13_58 <=1 
C508: x13+x59 <=1 
C509: x13+x60 <=1 
C510: x13+x61-y13_61 <=1 
C511: x13+x63 <=1 
C512: x13+x64 <=1 
C513: x13+x66-y13_66 <=1 
C514: x14+x15-y14_15 <=1 
C515: x14+x17 <=1 
C516: x14+x19 <=1 
C517: x14+x20-y14_20 <=1 
C518: x14+x23 <=1 
C519: x14+x24 <=1 
C520: x14+x25 <=1 
C521: x14+x26 <=1 
C522: x14+x28 <=1 
C523: x14+x29 <=1 
C524: x14+x32-y14_32 <=1 
C525: x14+x33 <=1 
C526: x14+x34 <=1 
C527: x14+x39-y14_39 <=1 
C528: x14+x41 <=1 
C529: x14+x42-y14_42 <=1 
C530: x14+x43-y14_43 <=1 
C531: x14+x45-y14_45 <=1 
C532: x14+x46-y14_46 <=1 
C533: x14+x47 <=1 
C534: x14+x48 <=1 
C535: x14+x49-y14_49 <=1 
C536: x14+x50-y14_50 <=1 
C537: x14+x52 <=1 
C538: x14+x53-y14_53 <=1 
C539: x14+x56 <=1 
C540: x14+x57 <=1 
C541: x14+x58 <=1 
C542: x14+x60-y14_60 <=1 
C543: x14+x61-y14_61 <=1 
C544: x14+x63 <=1 
C545: x14+x64-y14_64 <=1 
C546: x14+x65-y14_65 <=1 
C547: x14+x66-y14_66 <=1 
C548: x14+x68 <=1 
C549: x15+x18-y15_18 <=1 
C550: x15+x20 <=1 
C551: x15+x21 <=1 
C552: x15+x22 <=1 
C553: x15+x23 <=1 
C554: x15+x24 <=1 
C555: x15+x26-y15_26 <=1 
C556: x15+x27 <=1 
C557: x15+x29-y15_29 <=1 
C558: x15+x30-y15_30 <=1 
C559: x15+x33-y15_33 <=1 
C560: x15+x34-y15_34 <=1 
C561: x15+x35 <=1 
C562: x15+x36-y15_36 <=1 
C563: x15+x37-y15_37 <=1 
C564: x15+x39-y15_39 <=1 
C565: x15+x41-y15_41 <=1 
C566: x15+x42 <=1 
C567: x15+x43-y15_43 <=1 
C568: x15+x44-y15_44 <=1 
C569: x15+x45 <=1 
C570: x15+x46 <=1 
C571: x15+x47-y15_47 <=1 
C572: x15+x48-y15_48 <=1 
C573: x15+x50 <=1 
C574: x15+x51-y15_51 <=1 
C575: x15+x53-y15_53 <=1 
C576: x15+x54 <=1 
C577: x15+x56-y15_56 <=1 
C578: x15+x57 <=1 
C579: x15+x58 <=1 
C580: x15+x59-y15_59 <=1 
C581: x15+x60-y15_60 <=1 
C582: x15+x61-y15_61 <=1 
C583: x15+x62 <=1 
C584: x15+x63-y15_63 <=1 
C585: x15+x64-y15_64 <=1 
C586: x15+x66 <=1 
C587: x15+x67-y15_67 <=1 
C588: x15+x68-y15_68 <=1 
C589: x16+x18-y16_18 <=1 
C590: x16+x22 <=1 
C591: x16+x25-y16_25 <=1 
C592: x16+x27-y16_27 <=1 
C593: x16+x28-y16_28 <=1 
C594: x16+x29 <=1 
C595: x16+x30 <=1 
C596: x16+x31 <=1 
C597: x16+x32-y16_32 <=1 
C598: x16+x36 <=1 
C599: x16+x38-y16_38 <=1 
C600: x16+x40 <=1 
C601: x16+x41-y16_41 <=1 
C602: x16+x42 <=1 
C603: x16+x43 <=1 
C604: x16+x44-y16_44 <=1 
C605: x16+x46 <=1 
C606: x16+x47-y16_47 <=1 
C607: x16+x50 <=1 
C608: x16+x52 <=1 
C609: x16+x53 <=1 
C610: x16+x54-y16_54 <=1 
C611: x16+x55-y16_55 <=1 
C612: x16+x58 <=1 
C613: x16+x59-y16_59 <=1 
C614: x16+x60 <=1 
C615: x16+x61 <=1 
C616: x16+x63-y16_63 <=1 
C617: x16+x65 <=1 
C618: x16+x66-y16_66 <=1 
C619: x16+x67 <=1 
C620: x16+x68 <=1 
C621: x17+x19-y17_19 <=1 
C622: x17+x20-y17_20 <=1 
C623: x17+x21 <=1 
C624: x17+x24 <=1 
C625: x17+x25-y17_25 <=1 
C626: x17+x26-y17_26 <=1 
C627: x17+x27 <=1 
C628: x17+x28 <=1 
C629: x17+x29 <=1 
C630: x17+x30 <=1 
C631: x17+x32-y17_32 <=1 
C632: x17+x36 <=1 
C633: x17+x39 <=1 
C634: x17+x41-y17_41 <=1 
C635: x17+x43 <=1 
C636: x17+x46-y17_46 <=1 
C637: x17+x48 <=1 
C638: x17+x49-y17_49 <=1 
C639: x17+x50 <=1 
C640: x17+x53 <=1 
C641: x17+x54 <=1 
C642: x17+x57 <=1 
C643: x17+x59-y17_59 <=1 
C644: x17+x60-y17_60 <=1 
C645: x17+x61 <=1 
C646: x17+x63 <=1 
C647: x17+x64 <=1 
C648: x17+x65-y17_65 <=1 
C649: x17+x67-y17_67 <=1 
C650: x17+x68-y17_68 <=1 
C651: x18+x19 <=1 
C652: x18+x21 <=1 
C653: x18+x22 <=1 
C654: x18+x23 <=1 
C655: x18+x24 <=1 
C656: x18+x25-y18_25 <=1 
C657: x18+x26-y18_26 <=1 
C658: x18+x27-y18_27 <=1 
C659: x18+x28 <=1 
C660: x18+x29-y18_29 <=1 
C661: x18+x32-y18_32 <=1 
C662: x18+x33 <=1 
C663: x18+x34-y18_34 <=1 
C664: x18+x35 <=1 
C665: x18+x37 <=1 
C666: x18+x42 <=1 
C667: x18+x45-y18_45 <=1 
C668: x18+x46-y18_46 <=1 
C669: x18+x47-y18_47 <=1 
C670: x18+x49-y18_49 <=1 
C671: x18+x50 <=1 
C672: x18+x51-y18_51 <=1 
C673: x18+x52-y18_52 <=1 
C674: x18+x53-y18_53 <=1 
C675: x18+x54-y18_54 <=1 
C676: x18+x58 <=1 
C677: x18+x60 <=1 
C678: x18+x63 <=1 
C679: x18+x64-y18_64 <=1 
C680: x18+x67 <=1 
C681: x18+x68 <=1 
C682: x19+x21-y19_21 <=1 
C683: x19+x23 <=1 
C684: x19+x25 <=1 
C685: x19+x26 <=1 
C686: x19+x27-y19_27 <=1 
C687: x19+x28 <=1 
C688: x19+x29-y19_29 <=1 
C689: x19+x33 <=1 
C690: x19+x34 <=1 
C691: x19+x35 <=1 
C692: x19+x36 <=1 
C693: x19+x37 <=1 
C694: x19+x38-y19_38 <=1 
C695: x19+x40 <=1 
C696: x19+x43 <=1 
C697: x19+x45 <=1 
C698: x19+x46-y19_46 <=1 
C699: x19+x47 <=1 
C700: x19+x52 <=1 
C701: x19+x54-y19_54 <=1 
C702: x19+x55 <=1 
C703: x19+x56-y19_56 <=1 
C704: x19+x57-y19_57 <=1 
C705: x19+x60 <=1 
C706: x19+x61-y19_61 <=1 
C707: x19+x63 <=1 
C708: x19+x64-y19_64 <=1 
C709: x19+x65-y19_65 <=1 
C710: x19+x66-y19_66 <=1 
C711: x19+x67-y19_67 <=1 
C712: x19+x68-y19_68 <=1 
C713: x20+x21-y20_21 <=1 
C714: x20+x22 <=1 
C715: x20+x24 <=1 
C716: x20+x26 <=1 
C717: x20+x29 <=1 
C718: x20+x33 <=1 
C719: x20+x34-y20_34 <=1 
C720: x20+x35-y20_35 <=1 
C721: x20+x36 <=1 
C722: x20+x38-y20_38 <=1 
C723: x20+x39-y20_39 <=1 
C724: x20+x41-y20_41 <=1 
C725: x20+x42 <=1 
C726: x20+x43-y20_43 <=1 
C727: x20+x46-y20_46 <=1 
C728: x20+x47-y20_47 <=1 
C729: x20+x48-y20_48 <=1 
C730: x20+x49-y20_49 <=1 
C731: x20+x53-y20_53 <=1 
C732: x20+x54 <=1 
C733: x20+x55 <=1 
C734: x20+x56-y20_56 <=1 
C735: x20+x57-y20_57 <=1 
C736: x20+x60-y20_60 <=1 
C737: x20+x62 <=1 
C738: x20+x63-y20_63 <=1 
C739: x20+x64 <=1 
C740: x20+x65-y20_65 <=1 
C741: x20+x66 <=1 
C742: x20+x67 <=1 
C743: x20+x68 <=1 
C744: x21+x22-y21_22 <=1 
C745: x21+x23 <=1 
C746: x21+x24 <=1 
C747: x21+x26-y21_26 <=1 
C748: x21+x29 <=1 
C749: x21+x30 <=1 
C750: x21+x31 <=1 
C751: x21+x32 <=1 
C752: x21+x33 <=1 
C753: x21+x34 <=1 
C754: x21+x35 <=1 
C755: x21+x37-y21_37 <=1 
C756: x21+x38 <=1 
C757: x21+x39-y21_39 <=1 
C758: x21+x40 <=1 
C759: x21+x41 <=1 
C760: x21+x42 <=1 
C761: x21+x43 <=1 
C762: x21+x44 <=1 
C763: x21+x45 <=1 
C764: x21+x46 <=1 
C765: x21+x47-y21_47 <=1 
C766: x21+x48-y21_48 <=1 
C767: x21+x49 <=1 
C768: x21+x50-y21_50 <=1 
C769: x21+x54-y21_54 <=1 
C770: x21+x56 <=1 
C771: x21+x57-y21_57 <=1 
C772: x21+x58 <=1 
C773: x21+x59 <=1 
C774: x21+x64-y21_64 <=1 
C775: x21+x65 <=1 
C776: x21+x66 <=1 
C777: x21+x67-y21_67 <=1 
C778: x22+x23 <=1 
C779: x22+x27-y22_27 <=1 
C780: x22+x28-y22_28 <=1 
C781: x22+x30-y22_30 <=1 
C782: x22+x31-y22_31 <=1 
C783: x22+x32-y22_32 <=1 
C784: x22+x33-y22_33 <=1 
C785: x22+x34-y22_34 <=1 
C786: x22+x40-y22_40 <=1 
C787: x22+x44-y22_44 <=1 
C788: x22+x45 <=1 
C789: x22+x46-y22_46 <=1 
C790: x22+x47 <=1 
C791: x22+x48-y22_48 <=1 
C792: x22+x51 <=1 
C793: x22+x52-y22_52 <=1 
C794: x22+x54 <=1 
C795: x22+x56 <=1 
C796: x22+x59-y22_59 <=1 
C797: x22+x62-y22_62 <=1 
C798: x23+x24-y23_24 <=1 
C799: x23+x25 <=1 
C800: x23+x26 <=1 
C801: x23+x27 <=1 
C802: x23+x28-y23_28 <=1 
C803: x23+x30-y23_30 <=1 
C804: x23+x31 <=1 
C805: x23+x32-y23_32 <=1 
C806: x23+x34 <=1 
C807: x23+x37 <=1 
C808: x23+x38 <=1 
C809: x23+x39 <=1 
C810: x23+x40-y23_40 <=1 
C811: x23+x42 <=1 
C812: x23+x43-y23_43 <=1 
C813: x23+x44-y23_44 <=1 
C814: x23+x46 <=1 
C815: x23+x47 <=1 
C816: x23+x48-y23_48 <=1 
C817: x23+x49 <=1 
C818: x23+x53 <=1 
C819: x23+x55-y23_55 <=1 
C820: x23+x56-y23_56 <=1 
C821: x23+x57 <=1 
C822: x23+x58 <=1 
C823: x23+x59 <=1 
C824: x23+x60 <=1 
C825: x23+x62 <=1 
C826: x23+x63-y23_63 <=1 
C827: x23+x64-y23_64 <=1 
C828: x23+x65-y23_65 <=1 
C829: x23+x68-y23_68 <=1 
C830: x24+x25-y24_25 <=1 
C831: x24+x27 <=1 
C832: x24+x28 <=1 
C833: x24+x29 <=1 
C834: x24+x30-y24_30 <=1 
C835: x24+x31 <=1 
C836: x24+x32 <=1 
C837: x24+x33-y24_33 <=1 
C838: x24+x34 <=1 
C839: x24+x37 <=1 
C840: x24+x38 <=1 
C841: x24+x39-y24_39 <=1 
C842: x24+x41-y24_41 <=1 
C843: x24+x42 <=1 
C844: x24+x43 <=1 
C845: x24+x44-y24_44 <=1 
C846: x24+x45-y24_45 <=1 
C847: x24+x47 <=1 
C848: x24+x48-y24_48 <=1 
C849: x24+x49 <=1 
C850: x24+x53-y24_53 <=1 
C851: x24+x56-y24_56 <=1 
C852: x24+x58 <=1 
C853: x24+x59 <=1 
C854: x24+x62-y24_62 <=1 
C855: x24+x63 <=1 
C856: x24+x64 <=1 
C857: x24+x65 <=1 
C858: x24+x66-y24_66 <=1 
C859: x24+x68 <=1 
C860: x25+x26-y25_26 <=1 
C861: x25+x27-y25_27 <=1 
C862: x25+x28-y25_28 <=1 
C863: x25+x30-y25_30 <=1 
C864: x25+x31 <=1 
C865: x25+x32-y25_32 <=1 
C866: x25+x33-y25_33 <=1 
C867: x25+x34 <=1 
C868: x25+x37-y25_37 <=1 
C869: x25+x40-y25_40 <=1 
C870: x25+x43 <=1 
C871: x25+x44 <=1 
C872: x25+x45-y25_45 <=1 
C873: x25+x48-y25_48 <=1 
C874: x25+x50 <=1 
C875: x25+x51-y25_51 <=1 
C876: x25+x52 <=1 
C877: x25+x53-y25_53 <=1 
C878: x25+x55 <=1 
C879: x25+x56-y25_56 <=1 
C880: x25+x57-y25_57 <=1 
C881: x25+x58-y25_58 <=1 
C882: x25+x59 <=1 
C883: x25+x60 <=1 
C884: x25+x62 <=1 
C885: x25+x63-y25_63 <=1 
C886: x25+x67-y25_67 <=1 
C887: x26+x27-y26_27 <=1 
C888: x26+x28-y26_28 <=1 
C889: x26+x29 <=1 
C890: x26+x31 <=1 
C891: x26+x34 <=1 
C892: x26+x35-y26_35 <=1 
C893: x26+x38 <=1 
C894: x26+x39 <=1 
C895: x26+x40 <=1 
C896: x26+x43-y26_43 <=1 
C897: x26+x44-y26_44 <=1 
C898: x26+x45 <=1 
C899: x26+x46-y26_46 <=1 
C900: x26+x47 <=1 
C901: x26+x48-y26_48 <=1 
C902: x26+x49 <=1 
C903: x26+x53 <=1 
C904: x26+x54-y26_54 <=1 
C905: x26+x55 <=1 
C906: x26+x56 <=1 
C907: x26+x58 <=1 
C908: x26+x59-y26_59 <=1 
C909: x26+x60 <=1 
C910: x26+x61-y26_61 <=1 
C911: x26+x62-y26_62 <=1 
C912: x26+x63 <=1 
C913: x26+x65-y26_65 <=1 
C914: x27+x31-y27_31 <=1 
C915: x27+x33-y27_33 <=1 
C916: x27+x34 <=1 
C917: x27+x37 <=1 
C918: x27+x38-y27_38 <=1 
C919: x27+x42-y27_42 <=1 
C920: x27+x43-y27_43 <=1 
C921: x27+x44-y27_44 <=1 
C922: x27+x45 <=1 
C923: x27+x46-y27_46 <=1 
C924: x27+x47 <=1 
C925: x27+x49-y27_49 <=1 
C926: x27+x50 <=1 
C927: x27+x51-y27_51 <=1 
C928: x27+x55 <=1 
C929: x27+x56-y27_56 <=1 
C930: x27+x59-y27_59 <=1 
C931: x27+x61 <=1 
C932: x27+x62-y27_62 <=1 
C933: x27+x63 <=1 
C934: x27+x64 <=1 
C935: x27+x66-y27_66 <=1 
C936: x27+x67-y27_67 <=1 
C937: x28+x29-y28_29 <=1 
C938: x28+x30 <=1 
C939: x28+x31-y28_31 <=1 
C940: x28+x33-y28_33 <=1 
C941: x28+x34 <=1 
C942: x28+x37 <=1 
C943: x28+x40-y28_40 <=1 
C944: x28+x41-y28_41 <=1 
C945: x28+x42-y28_42 <=1 
C946: x28+x43 <=1 
C947: x28+x44-y28_44 <=1 
C948: x28+x45-y28_45 <=1 
C949: x28+x48-y28_48 <=1 
C950: x28+x49 <=1 
C951: x28+x50 <=1 
C952: x28+x55 <=1 
C953: x28+x57-y28_57 <=1 
C954: x28+x58-y28_58 <=1 
C955: x28+x61 <=1 
C956: x28+x62-y28_62 <=1 
C957: x28+x68-y28_68 <=1 
C958: x29+x34-y29_34 <=1 
C959: x29+x35-y29_35 <=1 
C960: x29+x37 <=1 
C961: x29+x38-y29_38 <=1 
C962: x29+x39-y29_39 <=1 
C963: x29+x40-y29_40 <=1 
C964: x29+x41 <=1 
C965: x29+x42-y29_42 <=1 
C966: x29+x43 <=1 
C967: x29+x45-y29_45 <=1 
C968: x29+x46-y29_46 <=1 
C969: x29+x48 <=1 
C970: x29+x52 <=1 
C971: x29+x54 <=1 
C972: x29+x55-y29_55 <=1 
C973: x29+x56-y29_56 <=1 
C974: x29+x58-y29_58 <=1 
C975: x29+x59 <=1 
C976: x29+x61-y29_61 <=1 
C977: x29+x62-y29_62 <=1 
C978: x29+x63 <=1 
C979: x29+x66-y29_66 <=1 
C980: x29+x68-y29_68 <=1 
C981: x30+x33-y30_33 <=1 
C982: x30+x35-y30_35 <=1 
C983: x30+x38 <=1 
C984: x30+x39-y30_39 <=1 
C985: x30+x40-y30_40 <=1 
C986: x30+x41 <=1 
C987: x30+x43-y30_43 <=1 
C988: x30+x44-y30_44 <=1 
C989: x30+x46 <=1 
C990: x30+x48 <=1 
C991: x30+x49 <=1 
C992: x30+x50-y30_50 <=1 
C993: x30+x51-y30_51 <=1 
C994: x30+x53 <=1 
C995: x30+x54 <=1 
C996: x30+x55 <=1 
C997: x30+x57-y30_57 <=1 
C998: x30+x59 <=1 
C999: x30+x61-y30_61 <=1 
C1000: x30+x62-y30_62 <=1 
C1001: x30+x63-y30_63 <=1 
C1002: x30+x64-y30_64 <=1 
C1003: x30+x65-y30_65 <=1 
C1004: x31+x32-y31_32 <=1 
C1005: x31+x33-y31_33 <=1 
C1006: x31+x34-y31_34 <=1 
C1007: x31+x37-y31_37 <=1 
C1008: x31+x38-y31_38 <=1 
C1009: x31+x39-y31_39 <=1 
C1010: x31+x42-y31_42 <=1 
C1011: x31+x43-y31_43 <=1 
C1012: x31+x44-y31_44 <=1 
C1013: x31+x45-y31_45 <=1 
C1014: x31+x46-y31_46 <=1 
C1015: x31+x48 <=1 
C1016: x31+x52-y31_52 <=1 
C1017: x31+x56-y31_56 <=1 
C1018: x31+x57-y31_57 <=1 
C1019: x31+x58 <=1 
C1020: x31+x62 <=1 
C1021: x31+x63 <=1 
C1022: x31+x64 <=1 
C1023: x31+x65-y31_65 <=1 
C1024: x31+x66-y31_66 <=1 
C1025: x31+x67 <=1 
C1026: x32+x33-y32_33 <=1 
C1027: x32+x34-y32_34 <=1 
C1028: x32+x35 <=1 
C1029: x32+x36 <=1 
C1030: x32+x38 <=1 
C1031: x32+x39-y32_39 <=1 
C1032: x32+x40-y32_40 <=1 
C1033: x32+x41 <=1 
C1034: x32+x44-y32_44 <=1 
C1035: x32+x45-y32_45 <=1 
C1036: x32+x46 <=1 
C1037: x32+x47-y32_47 <=1 
C1038: x32+x50-y32_50 <=1 
C1039: x32+x51 <=1 
C1040: x32+x53 <=1 
C1041: x32+x54-y32_54 <=1 
C1042: x32+x58-y32_58 <=1 
C1043: x32+x60 <=1 
C1044: x32+x61 <=1 
C1045: x32+x62 <=1 
C1046: x32+x63-y32_63 <=1 
C1047: x32+x64 <=1 
C1048: x32+x66 <=1 
C1049: x32+x67-y32_67 <=1 
C1050: x32+x68 <=1 
C1051: x33+x34-y33_34 <=1 
C1052: x33+x38-y33_38 <=1 
C1053: x33+x39-y33_39 <=1 
C1054: x33+x40-y33_40 <=1 
C1055: x33+x41-y33_41 <=1 
C1056: x33+x42-y33_42 <=1 
C1057: x33+x45-y33_45 <=1 
C1058: x33+x46 <=1 
C1059: x33+x49-y33_49 <=1 
C1060: x33+x50-y33_50 <=1 
C1061: x33+x51-y33_51 <=1 
C1062: x33+x54 <=1 
C1063: x33+x55 <=1 
C1064: x33+x56 <=1 
C1065: x33+x59 <=1 
C1066: x33+x60 <=1 
C1067: x33+x62-y33_62 <=1 
C1068: x33+x64 <=1 
C1069: x33+x65-y33_65 <=1 
C1070: x33+x68 <=1 
C1071: x34+x36-y34_36 <=1 
C1072: x34+x37-y34_37 <=1 
C1073: x34+x38 <=1 
C1074: x34+x40-y34_40 <=1 
C1075: x34+x41 <=1 
C1076: x34+x43 <=1 
C1077: x34+x44 <=1 
C1078: x34+x45-y34_45 <=1 
C1079: x34+x48 <=1 
C1080: x34+x50 <=1 
C1081: x34+x51-y34_51 <=1 
C1082: x34+x52-y34_52 <=1 
C1083: x34+x54-y34_54 <=1 
C1084: x34+x55-y34_55 <=1 
C1085: x34+x56 <=1 
C1086: x34+x57 <=1 
C1087: x34+x58-y34_58 <=1 
C1088: x34+x60-y34_60 <=1 
C1089: x34+x61-y34_61 <=1 
C1090: x34+x63 <=1 
C1091: x34+x65 <=1 
C1092: x34+x66 <=1 
C1093: x34+x67 <=1 
C1094: x34+x68-y34_68 <=1 
C1095: x35+x37-y35_37 <=1 
C1096: x35+x41-y35_41 <=1 
C1097: x35+x43 <=1 
C1098: x35+x45-y35_45 <=1 
C1099: x35+x46 <=1 
C1100: x35+x50-y35_50 <=1 
C1101: x35+x51 <=1 
C1102: x35+x53-y35_53 <=1 
C1103: x35+x57-y35_57 <=1 
C1104: x35+x59-y35_59 <=1 
C1105: x35+x60 <=1 
C1106: x35+x61 <=1 
C1107: x35+x62-y35_62 <=1 
C1108: x35+x65 <=1 
C1109: x35+x66-y35_66 <=1 
C1110: x35+x67-y35_67 <=1 
C1111: x36+x37-y36_37 <=1 
C1112: x36+x40-y36_40 <=1 
C1113: x36+x41 <=1 
C1114: x36+x43-y36_43 <=1 
C1115: x36+x44-y36_44 <=1 
C1116: x36+x45 <=1 
C1117: x36+x46 <=1 
C1118: x36+x50 <=1 
C1119: x36+x52 <=1 
C1120: x36+x54 <=1 
C1121: x36+x55-y36_55 <=1 
C1122: x36+x57 <=1 
C1123: x36+x61-y36_61 <=1 
C1124: x36+x62-y36_62 <=1 
C1125: x36+x63 <=1 
C1126: x36+x64-y36_64 <=1 
C1127: x36+x65 <=1 
C1128: x36+x66 <=1 
C1129: x37+x39 <=1 
C1130: x37+x42 <=1 
C1131: x37+x46 <=1 
C1132: x37+x47 <=1 
C1133: x37+x52 <=1 
C1134: x37+x53-y37_53 <=1 
C1135: x37+x55 <=1 
C1136: x37+x56-y37_56 <=1 
C1137: x37+x57 <=1 
C1138: x37+x59-y37_59 <=1 
C1139: x37+x61 <=1 
C1140: x37+x62 <=1 
C1141: x37+x63 <=1 
C1142: x37+x65-y37_65 <=1 
C1143: x37+x68 <=1 
C1144: x38+x40 <=1 
C1145: x38+x43 <=1 
C1146: x38+x44 <=1 
C1147: x38+x46 <=1 
C1148: x38+x47-y38_47 <=1 
C1149: x38+x48-y38_48 <=1 
C1150: x38+x49 <=1 
C1151: x38+x50-y38_50 <=1 
C1152: x38+x51 <=1 
C1153: x38+x52 <=1 
C1154: x38+x53-y38_53 <=1 
C1155: x38+x58-y38_58 <=1 
C1156: x38+x60 <=1 
C1157: x38+x62-y38_62 <=1 
C1158: x38+x63 <=1 
C1159: x38+x66 <=1 
C1160: x38+x68-y38_68 <=1 
C1161: x39+x40-y39_40 <=1 
C1162: x39+x43-y39_43 <=1 
C1163: x39+x44 <=1 
C1164: x39+x46-y39_46 <=1 
C1165: x39+x47 <=1 
C1166: x39+x48-y39_48 <=1 
C1167: x39+x50-y39_50 <=1 
C1168: x39+x52-y39_52 <=1 
C1169: x39+x54-y39_54 <=1 
C1170: x39+x55-y39_55 <=1 
C1171: x39+x56-y39_56 <=1 
C1172: x39+x57 <=1 
C1173: x39+x59-y39_59 <=1 
C1174: x39+x60 <=1 
C1175: x39+x61-y39_61 <=1 
C1176: x39+x67 <=1 
C1177: x40+x41-y40_41 <=1 
C1178: x40+x43-y40_43 <=1 
C1179: x40+x45-y40_45 <=1 
C1180: x40+x47 <=1 
C1181: x40+x50-y40_50 <=1 
C1182: x40+x54-y40_54 <=1 
C1183: x40+x55-y40_55 <=1 
C1184: x40+x56 <=1 
C1185: x40+x59 <=1 
C1186: x40+x61 <=1 
C1187: x40+x63-y40_63 <=1 
C1188: x40+x64-y40_64 <=1 
C1189: x40+x65-y40_65 <=1 
C1190: x40+x66-y40_66 <=1 
C1191: x41+x43-y41_43 <=1 
C1192: x41+x44 <=1 
C1193: x41+x45-y41_45 <=1 
C1194: x41+x46 <=1 
C1195: x41+x47-y41_47 <=1 
C1196: x41+x50 <=1 
C1197: x41+x51-y41_51 <=1 
C1198: x41+x52-y41_52 <=1 
C1199: x41+x55-y41_55 <=1 
C1200: x41+x57 <=1 
C1201: x41+x58-y41_58 <=1 
C1202: x41+x59-y41_59 <=1 
C1203: x41+x64-y41_64 <=1 
C1204: x41+x65-y41_65 <=1 
C1205: x41+x68-y41_68 <=1 
C1206: x42+x43 <=1 
C1207: x42+x45-y42_45 <=1 
C1208: x42+x47 <=1 
C1209: x42+x48 <=1 
C1210: x42+x49-y42_49 <=1 
C1211: x42+x51 <=1 
C1212: x42+x52 <=1 
C1213: x42+x54 <=1 
C1214: x42+x55 <=1 
C1215: x42+x58-y42_58 <=1 
C1216: x42+x59-y42_59 <=1 
C1217: x42+x60 <=1 
C1218: x42+x62-y42_62 <=1 
C1219: x42+x63-y42_63 <=1 
C1220: x42+x65 <=1 
C1221: x42+x66 <=1 
C1222: x42+x67-y42_67 <=1 
C1223: x42+x68-y42_68 <=1 
C1224: x43+x45 <=1 
C1225: x43+x46 <=1 
C1226: x43+x47 <=1 
C1227: x43+x50 <=1 
C1228: x43+x53-y43_53 <=1 
C1229: x43+x54-y43_54 <=1 
C1230: x43+x56-y43_56 <=1 
C1231: x43+x57-y43_57 <=1 
C1232: x43+x58-y43_58 <=1 
C1233: x43+x59 <=1 
C1234: x43+x60-y43_60 <=1 
C1235: x43+x62 <=1 
C1236: x43+x63 <=1 
C1237: x43+x64 <=1 
C1238: x43+x65 <=1 
C1239: x43+x67 <=1 
C1240: x43+x68-y43_68 <=1 
C1241: x44+x46-y44_46 <=1 
C1242: x44+x49 <=1 
C1243: x44+x50 <=1 
C1244: x44+x51-y44_51 <=1 
C1245: x44+x54-y44_54 <=1 
C1246: x44+x55-y44_55 <=1 
C1247: x44+x56-y44_56 <=1 
C1248: x44+x57-y44_57 <=1 
C1249: x44+x58 <=1 
C1250: x44+x60 <=1 
C1251: x44+x62-y44_62 <=1 
C1252: x44+x63 <=1 
C1253: x44+x65 <=1 
C1254: x44+x66-y44_66 <=1 
C1255: x44+x67 <=1 
C1256: x44+x68-y44_68 <=1 
C1257: x45+x47-y45_47 <=1 
C1258: x45+x48 <=1 
C1259: x45+x49 <=1 
C1260: x45+x51-y45_51 <=1 
C1261: x45+x52 <=1 
C1262: x45+x53-y45_53 <=1 
C1263: x45+x55-y45_55 <=1 
C1264: x45+x56 <=1 
C1265: x45+x57-y45_57 <=1 
C1266: x45+x58 <=1 
C1267: x45+x59-y45_59 <=1 
C1268: x45+x61-y45_61 <=1 
C1269: x45+x62 <=1 
C1270: x45+x63 <=1 
C1271: x46+x47-y46_47 <=1 
C1272: x46+x49 <=1 
C1273: x46+x51-y46_51 <=1 
C1274: x46+x53 <=1 
C1275: x46+x55 <=1 
C1276: x46+x58 <=1 
C1277: x46+x60 <=1 
C1278: x46+x61 <=1 
C1279: x46+x62 <=1 
C1280: x46+x67-y46_67 <=1 
C1281: x47+x49 <=1 
C1282: x47+x50-y47_50 <=1 
C1283: x47+x51 <=1 
C1284: x47+x52-y47_52 <=1 
C1285: x47+x55-y47_55 <=1 
C1286: x47+x56 <=1 
C1287: x47+x57 <=1 
C1288: x47+x58 <=1 
C1289: x47+x60-y47_60 <=1 
C1290: x47+x62-y47_62 <=1 
C1291: x47+x64-y47_64 <=1 
C1292: x47+x65-y47_65 <=1 
C1293: x47+x66-y47_66 <=1 
C1294: x47+x68-y47_68 <=1 
C1295: x48+x49-y48_49 <=1 
C1296: x48+x50-y48_50 <=1 
C1297: x48+x53-y48_53 <=1 
C1298: x48+x54-y48_54 <=1 
C1299: x48+x58-y48_58 <=1 
C1300: x48+x60-y48_60 <=1 
C1301: x48+x61-y48_61 <=1 
C1302: x48+x63 <=1 
C1303: x48+x67 <=1 
C1304: x48+x68 <=1 
C1305: x49+x52-y49_52 <=1 
C1306: x49+x56 <=1 
C1307: x49+x59-y49_59 <=1 
C1308: x49+x60-y49_60 <=1 
C1309: x49+x61-y49_61 <=1 
C1310: x49+x63-y49_63 <=1 
C1311: x49+x65 <=1 
C1312: x49+x66-y49_66 <=1 
C1313: x49+x67-y49_67 <=1 
C1314: x49+x68-y49_68 <=1 
C1315: x50+x52-y50_52 <=1 
C1316: x50+x56 <=1 
C1317: x50+x57-y50_57 <=1 
C1318: x50+x59 <=1 
C1319: x50+x60-y50_60 <=1 
C1320: x50+x62 <=1 
C1321: x50+x63-y50_63 <=1 
C1322: x50+x65-y50_65 <=1 
C1323: x50+x66-y50_66 <=1 
C1324: x50+x67-y50_67 <=1 
C1325: x50+x68 <=1 
C1326: x51+x52 <=1 
C1327: x51+x54-y51_54 <=1 
C1328: x51+x58 <=1 
C1329: x51+x60-y51_60 <=1 
C1330: x51+x63-y51_63 <=1 
C1331: x51+x64 <=1 
C1332: x51+x65 <=1 
C1333: x51+x66-y51_66 <=1 
C1334: x51+x67 <=1 
C1335: x52+x53 <=1 
C1336: x52+x54 <=1 
C1337: x52+x56-y52_56 <=1 
C1338: x52+x57 <=1 
C1339: x52+x59-y52_59 <=1 
C1340: x52+x60 <=1 
C1341: x52+x62 <=1 
C1342: x52+x63-y52_63 <=1 
C1343: x52+x64-y52_64 <=1 
C1344: x53+x55 <=1 
C1345: x53+x57 <=1 
C1346: x53+x58 <=1 
C1347: x53+x59-y53_59 <=1 
C1348: x53+x61 <=1 
C1349: x53+x62 <=1 
C1350: x53+x63 <=1 
C1351: x53+x64-y53_64 <=1 
C1352: x53+x68 <=1 
C1353: x54+x55-y54_55 <=1 
C1354: x54+x57 <=1 
C1355: x54+x58 <=1 
C1356: x54+x60-y54_60 <=1 
C1357: x54+x63 <=1 
C1358: x54+x66 <=1 
C1359: x54+x68-y54_68 <=1 
C1360: x55+x56-y55_56 <=1 
C1361: x55+x58-y55_58 <=1 
C1362: x55+x59 <=1 
C1363: x55+x62 <=1 
C1364: x55+x63 <=1 
C1365: x55+x64-y55_64 <=1 
C1366: x55+x65 <=1 
C1367: x55+x66 <=1 
C1368: x56+x57-y56_57 <=1 
C1369: x56+x58-y56_58 <=1 
C1370: x56+x60 <=1 
C1371: x56+x61-y56_61 <=1 
C1372: x56+x63-y56_63 <=1 
C1373: x56+x64 <=1 
C1374: x56+x65 <=1 
C1375: x56+x66-y56_66 <=1 
C1376: x56+x67-y56_67 <=1 
C1377: x57+x60-y57_60 <=1 
C1378: x57+x61 <=1 
C1379: x57+x62-y57_62 <=1 
C1380: x57+x66 <=1 
C1381: x57+x67 <=1 
C1382: x58+x59 <=1 
C1383: x58+x60 <=1 
C1384: x58+x61 <=1 
C1385: x58+x67 <=1 
C1386: x58+x68-y58_68 <=1 
C1387: x59+x60 <=1 
C1388: x59+x61-y59_61 <=1 
C1389: x59+x62-y59_62 <=1 
C1390: x59+x64 <=1 
C1391: x59+x65 <=1 
C1392: x59+x66-y59_66 <=1 
C1393: x59+x68 <=1 
C1394: x60+x64 <=1 
C1395: x60+x67 <=1 
C1396: x61+x64-y61_64 <=1 
C1397: x61+x65-y61_65 <=1 
C1398: x62+x64-y62_64 <=1 
C1399: x62+x67-y62_67 <=1 
C1400: x62+x68 <=1 
C1401: x63+x64 <=1 
C1402: x63+x65-y63_65 <=1 
C1403: x63+x66-y63_66 <=1 
C1404: x63+x67-y63_67 <=1 
C1405: x63+x68-y63_68 <=1 
C1406: x64+x67-y64_67 <=1 
C1407: x64+x68 <=1 
C1408: x65+x67 <=1 
C1409: x66+x67-y66_67 <=1 
C1410: x67+x68 <=1 

binary
x0
x1
x2
x3
x4
x5
x6
x7
x8
x9
x10
x11
x12
x13
x14
x15
x16
x17
x18
x19
x20
x21
x22
x23
x24
x25
x26
x27
x28
x29
x30
x31
x32
x33
x34
x35
x36
x37
x38
x39
x40
x41
x42
x43
x44
x45
x46
x47
x48
x49
x50
x51
x52
x53
x54
x55
x56
x57
x58
x59
x60
x61
x62
x63
x64
x65
x66
x67
x68
